N = 7;
H = 5;
T = 2;

avail = array3d(1..N, 1..H, 1..T, [8, 8, 0, 10, 7, 6, 0, 0, 3, 9, 3, 7, 4, 3, 6, 0, 6, 5, 7, 9, 7, 1, 0, 4, 8, 6, 0, 1, 1, 5, 5, 2, 1, 0, 2, 2, 2, 1, 5, 4, 3, 1, 7, 3, 7, 6, 10, 3, 10, 9, 4, 7, 5, 9, 10, 10, 6, 6, 1, 1, 0, 8, 1, 6, 6, 3, 8, 6, 9, 0]);

r = array2d(1..H, 1..T, [2, 0, 2, 0, 1, 2, 1, 2, 2, 1]);
